c ---- [ banner ] ------------------------------------------------------------
c
c Kissat SAT Solver
c 
c Copyright (c) 2021-2024 Armin Biere University of Freiburg
c Copyright (c) 2019-2021 Armin Biere Johannes Kepler University Linz
c 
c Version 4.0.1 43f02cf3e992cb44653b35e5cb26f93281552ae0
c gcc (Ubuntu 13.2.0-23ubuntu4) 13.2.0 -W -Wall -O3 -DNDEBUG
c Thu Sep 12 12:27:46 CEST 2024 Linux abryzen9 6.8.0-41-generic x86_64
c
c ---- [ parsing ] -----------------------------------------------------------
c
c opened and reading DIMACS file:
c
c   /data/artifact/AMulet2.0_artifact/exp4/cnf_dc2_64/64_64_U_SP_CWT_CL_GenMul_dc2.cnf
c
c parsed 'p cnf 37790 150876' header
c closing input after reading 2958137 bytes (3 MB)
c finished parsing after 0.04 seconds
c
c ---- [ options ] -----------------------------------------------------------
c
c --stable=0                       (different from default '1')
c
c ---- [ solving ] -----------------------------------------------------------
c
c  seconds switched rate     size/glue tier1  binary           remaining
c         MB reductions conflicts size  tier2     irredundant
c          level restarts redundant glue  trail           variables
c
c *  0.04 12 0 0 0  0 0   0   0 0.0 0 0 0 0 0% 35792 115082 37787 100%
c (  0.07 13 0 0 0  0 0   0   0 0.0 0 0 0 0 0% 35792 115082 37787 100%
c .  0.08 13 0 0 0  0 0   0   0 0.0 0 0 0 0 0% 35788 115082 37787 100%
c c  0.19 21 0 0 0  0 0   0   0 0.0 0 0 0 0 0% 44164 100157 33597 89%
c d  0.20 21 0 0 0  0 0   0   0 0.0 0 0 0 0 0% 35784 100157 33597 89%
c =  0.27 21 0 0 0  0 0   0   0 0.0 0 0 0 0 0% 35750 100157 33005 87%
c d  0.29 21 0 0 0  0 0   0   0 0.0 0 0 0 0 0% 34566 100157 33005 87%
c f  0.42 20 0 0 0  0 0   0   0 0.0 0 0 0 0 0% 35734 95988 34965 93%
c e  0.59 28 0 0 0  0 0   0   0 0.0 0 0 0 0 0% 24640 104396 25468 67%
c )  0.59 28 0 0 0  0 0   0   0 0.0 0 0 0 0 0% 24640 104396 25468 67%
c {  0.60 28 0 0 0  0 0   0   0 0.0 0 0 2 6 0% 24640 104396 25468 67%
c -  0.73 28 113 0 1 256 27 1000 722 2.6 11 4 3 7 16% 24741 104393 25468 67%
c -  0.91 28 201 0 2 377 30 2000 1471 2.9 17 6 3 9 24% 24798 104386 25468 67%
c c  1.02 23 214 0 2 422 31 2506 1914 2.9 16 6 3 9 26% 25475 103962 25049 66%
c d  1.03 23 214 0 2 422 31 2506 1913 2.9 16 6 3 9 26% 24637 103962 25049 66%
c u  1.04 23 214 0 2 422 31 2506 1443 2.9 16 6 3 9 26% 23396 103962 25049 66%
c v  1.05 23 214 0 2 422 31 2506 1276 2.9 16 6 3 9 26% 23396 103962 25049 66%
c w  1.07 23 214 0 2 422 31 2506 1276 2.9 16 6 3 9 26% 23396 103962 25049 66%
c x  1.08 24 214 0 2 422 31 2506 1276 2.9 16 6 3 9 26% 23509 103523 25049 66%
c =  1.14 24 214 0 2 422 31 2506 1276 2.9 16 6 3 9 26% 24015 103523 24796 66%
c
c  seconds   switched   rate       size/glue tier1    binary           remaining
c         MB  reductions conflicts       size  tier2      irredundant
c           level restarts    redundant    glue   trail           variables
c
c d  1.14 24 214 0 2 422 31 2506 1276 2.9 16 6 3 9 26% 23508 103523 24796 66%
c t  1.15 24 214 0 2 422 31 2506 1276 2.9 16 6 3 9 26% 23493 103523 24796 66%
c f  1.17 24 214 0 2 422 31 2506 1276 2.9 16 6 3 9 26% 23854 102605 25225 67%
c u  1.23 24 214 0 2 422 31 2506 1185 2.9 16 6 3 9 26% 23861 102605 25225 67%
c v  1.25 24 214 0 2 422 31 2506 1117 2.9 16 6 3 9 26% 23861 102605 25225 67%
c w  1.26 24 214 0 2 422 31 2506 1111 2.9 16 6 3 9 26% 23861 102605 25225 67%
c x  1.27 24 214 0 2 422 31 2506 1111 2.9 16 6 3 9 26% 23862 102263 25225 67%
c =  1.33 24 214 0 2 422 31 2506 1111 2.9 16 6 3 9 26% 24438 102263 24937 66%
c d  1.34 24 214 0 2 422 31 2506 1106 2.9 16 6 3 9 26% 23827 102263 24937 66%
c t  1.34 24 214 0 2 422 31 2506 1106 2.9 16 6 3 9 26% 23825 102263 24937 66%
c f  1.37 24 214 0 2 422 31 2506 1106 2.9 16 6 3 9 26% 23808 101924 25040 66%
c -  1.55 24 221 0 3 511 29 3414 1578 3.5 21 6 3 9 26% 23867 101919 25040 66%
c -  1.76 24 233 0 4 617 27 5148 2688 3.6 21 6 3 9 27% 23993 101904 25040 66%
c -  2.08 24 251 0 5 798 27 7148 3899 3.5 20 6 3 9 29% 24085 101900 25040 66%
c d  2.21 24 267 0 5 885 28 7716 4382 3.4 20 6 3 9 29% 24073 101899 25020 66%
c u  2.24 24 267 0 5 885 28 7716 3389 3.4 20 6 3 9 29% 24083 101899 25020 66%
c v  2.27 24 267 0 5 885 28 7716 3114 3.4 20 6 3 9 29% 24083 101899 25020 66%
c w  2.28 24 267 0 5 885 28 7716 3114 3.4 20 6 3 9 29% 24083 101899 25020 66%
c x  2.30 24 267 0 5 885 28 7716 3114 3.4 20 6 3 9 29% 24083 101425 25020 66%
c =  2.42 24 267 0 5 885 28 7716 3114 3.4 20 6 3 9 29% 25369 101425 24377 65%
c
c  seconds   switched   rate       size/glue tier1    binary           remaining
c         MB  reductions conflicts       size  tier2      irredundant
c           level restarts    redundant    glue   trail           variables
c
c d  2.42 24 267 0 5 885 28 7716 3049 3.4 20 6 3 9 29% 24035 101425 24377 65%
c t  2.44 24 267 0 5 885 28 7716 3049 3.4 20 6 3 9 29% 23881 101425 24377 65%
c f  2.48 24 267 0 5 885 28 7716 3049 3.4 20 6 3 9 29% 24417 100000 24819 66%
c c  2.53 24 267 0 5 885 28 7716 3049 3.4 20 6 3 9 29% 24423 99987 24816 66%
c d  2.54 24 267 0 5 885 28 7716 3049 3.4 20 6 3 9 29% 24417 99987 24816 66%
c u  2.56 24 267 0 5 885 28 7716 2853 3.4 20 6 3 9 29% 24418 99987 24816 66%
c v  2.58 24 267 0 5 885 28 7716 2753 3.4 20 6 3 9 29% 24418 99987 24816 66%
c w  2.61 24 267 0 5 885 28 7716 2746 3.4 20 6 3 9 29% 24418 99987 24816 66%
c x  2.63 24 267 0 5 885 28 7716 2746 3.4 20 6 3 9 29% 24466 99554 24816 66%
c =  2.73 24 267 0 5 885 28 7716 2746 3.4 20 6 3 9 29% 25588 99554 24255 64%
c d  2.74 24 267 0 5 885 28 7716 2736 3.4 20 6 3 9 29% 24351 99554 24255 64%
c t  2.76 24 267 0 5 885 28 7716 2736 3.4 20 6 3 9 29% 24268 99554 24255 64%
c f  2.80 24 267 0 5 885 28 7716 2736 3.4 20 6 3 9 29% 24785 97783 24970 66%
c -  2.97 24 284 0 6 971 28 9385 3661 3.3 18 6 3 9 28% 24870 97781 24970 66%
c o  3.05 24 294 0 6 1017 28 10143 4303 3.2 18 6 3 9 28% 24912 97776 24970 66%
c -  3.33 24 281 0 7 1162 27 11834 5155 3.2 18 6 3 9 28% 24977 97776 24970 66%
c s  3.46 24 276 0 7 1206 27 12528 5773 3.1 17 6 3 9 29% 25045 90355 24970 66%
c e  3.55 26 276 0 7 1206 27 12528 5773 3.1 17 6 3 9 29% 21717 92860 22465 59%
c 2  3.55 26 276 0 7 1206 27 12528 5773 3.1 17 6 3 9 29% 21715 92860 22465 59%
c s  3.56 26 276 0 7 1206 27 12528 5773 3.1 17 6 3 9 29% 21757 92073 22465 59%
c
c  seconds   switched    rate        size/glue tier1    binary          remaining
c         MB  reductions   conflicts       size  tier2      irredundant
c           level  restarts     redundant    glue   trail          variables
c
c e  3.57 26 276 0 7 1206 27 12528 5773 3.1 17 6 3 9 29% 21043 92447 22100 58%
c ^  3.57 26 276 0 7 1206 27 12528 5773 3.1 17 6 3 9 29% 21043 92447 22100 58%
c -  3.81 26 272 0 8 1314 27 14479 5846 3.0 17 6 3 8 29% 21120 92446 22100 58%
c d  4.07 26 262 0 8 1484 27 15803 7009 3.0 17 6 3 8 29% 21085 92442 22054 58%
c u  4.11 26 262 0 8 1484 27 15803 5506 3.0 17 6 3 8 29% 21103 92442 22054 58%
c v  4.14 26 262 0 8 1484 27 15803 5059 3.0 17 6 3 8 29% 21104 92442 22054 58%
c w  4.16 26 262 0 8 1484 27 15803 5059 3.0 17 6 3 8 29% 21104 92442 22054 58%
c x  4.19 26 262 0 8 1484 27 15803 5058 3.0 17 6 3 8 29% 21127 92002 22054 58%
c =  4.34 26 262 0 8 1484 27 15803 5058 3.0 17 6 3 8 29% 21667 92002 21784 58%
c d  4.35 26 262 0 8 1484 27 15803 5007 3.0 17 6 3 8 29% 20982 92002 21783 58%
c t  4.36 26 262 0 8 1484 27 15803 5007 3.0 17 6 3 8 29% 20903 92002 21783 58%
c f  4.41 26 262 0 8 1484 27 15803 5007 3.0 17 6 3 8 29% 20953 91798 21835 58%
c u  4.44 26 262 0 8 1484 27 15803 4724 3.0 17 6 3 8 29% 20955 91798 21835 58%
c v  4.47 26 262 0 8 1484 27 15803 4569 3.0 17 6 3 8 29% 20955 91798 21835 58%
c w  4.50 26 262 0 8 1484 27 15803 4556 3.0 17 6 3 8 29% 20955 91798 21835 58%
c x  4.52 26 262 0 8 1484 27 15803 4552 3.0 17 6 3 8 29% 21006 90593 21835 58%
c =  4.64 26 262 0 8 1484 27 15803 4552 3.0 17 6 3 8 29% 21554 90593 21561 57%
c d  4.65 26 262 0 8 1484 27 15803 4511 3.0 17 6 3 8 29% 20952 90593 21561 57%
c t  4.66 26 262 0 8 1484 27 15803 4511 3.0 17 6 3 8 29% 20914 90593 21561 57%
c f  4.70 26 262 0 8 1484 27 15803 4511 3.0 17 6 3 8 29% 20889 90517 21583 57%
c
c  seconds   switched    rate        size/glue tier1    binary          remaining
c         MB  reductions   conflicts       size  tier2      irredundant
c           level  restarts     redundant    glue   trail          variables
c
c -  4.89 26 263 0 9 1574 27 17307 5222 3.0 17 6 3 8 29% 20951 90517 21583 57%
c o  5.31 26 259 0 9 1832 27 20154 7802 3.1 17 6 3 8 29% 21022 90517 21583 57%
c -  5.36 26 259 0 10 1874 28 20308 7182 3.1 18 6 3 8 29% 21024 90517 21583 57%
c -  5.92 26 263 0 11 2292 29 23470 8423 3.3 19 6 2 8 29% 21125 90516 21583 57%
c s  6.14 26 262 0 11 2415 30 25037 9777 3.3 20 6 2 8 29% 21198 89283 21583 57%
c e  6.25 26 262 0 11 2415 30 25037 9777 3.3 20 6 2 8 29% 17575 94471 19577 52%
c 2  6.25 26 262 0 11 2415 30 25037 9777 3.3 20 6 2 8 29% 17564 94471 19577 52%
c s  6.27 26 262 0 11 2415 30 25037 9777 3.3 20 6 2 8 29% 17654 93011 19577 52%
c e  6.28 26 262 0 11 2415 30 25037 9777 3.3 20 6 2 8 29% 17582 93120 19535 52%
c ^  6.28 26 262 0 11 2415 30 25037 9777 3.3 20 6 2 8 29% 17582 93120 19535 52%
c -  6.47 26 262 0 12 2513 29 26786 8319 3.3 20 6 2 8 29% 17617 93119 19535 52%
c c  6.53 26 262 0 12 2518 29 26933 8455 3.3 20 6 2 8 29% 17647 93043 19522 52%
c d  6.53 26 262 0 12 2518 29 26933 8441 3.3 20 6 2 8 29% 17580 93043 19498 52%
c u  6.57 26 262 0 12 2518 29 26933 7315 3.3 20 6 2 8 29% 17590 93043 19498 52%
c v  6.60 26 262 0 12 2518 29 26933 6419 3.3 20 6 2 8 29% 17591 93043 19498 52%
c w  6.61 26 262 0 12 2518 29 26933 6417 3.3 20 6 2 8 29% 17591 93043 19498 52%
c x  6.67 26 262 0 12 2518 29 26933 6414 3.3 20 6 2 8 29% 17634 92253 19498 52%
c =  6.84 26 262 0 12 2518 29 26933 6414 3.3 20 6 2 8 29% 18636 92253 18997 50%
c d  6.85 26 262 0 12 2518 29 26933 6279 3.3 20 6 2 8 29% 17605 92253 18996 50%
c t  6.86 26 262 0 12 2518 29 26933 6279 3.3 20 6 2 8 29% 17465 92253 18996 50%
c
c  seconds   switched     rate        size/glue tier1    binary          remaining
c         MB   reductions   conflicts       size  tier2      irredundant
c           level   restarts     redundant    glue   trail          variables
c
c f  6.93 27 262 0 12 2518 29 26933 6279 3.3 20 6 2 8 29% 17687 91356 19168 51%
c u  6.97 27 262 0 12 2518 29 26933 5950 3.3 20 6 2 8 29% 17691 91356 19168 51%
c v  7.00 27 262 0 12 2518 29 26933 5771 3.3 20 6 2 8 29% 17692 91356 19168 51%
c w  7.01 27 262 0 12 2518 29 26933 5770 3.3 20 6 2 8 29% 17692 91356 19168 51%
c x  7.08 27 262 0 12 2518 29 26933 5766 3.3 20 6 2 8 29% 17744 89541 19168 51%
c =  7.26 27 262 0 12 2518 29 26933 5766 3.3 20 6 2 8 29% 18338 89541 18871 50%
c d  7.27 27 262 0 12 2518 29 26933 5737 3.3 20 6 2 8 29% 17713 89541 18871 50%
c t  7.28 27 262 0 12 2518 29 26933 5737 3.3 20 6 2 8 29% 17660 89541 18871 50%
c f  7.31 27 262 0 12 2518 29 26933 5737 3.3 20 6 2 8 29% 17669 89408 18899 50%
c -  7.71 27 260 0 13 2778 29 30250 7661 3.3 20 6 2 7 29% 17724 89408 18899 50%
c -  8.07 27 266 0 14 3009 29 33855 9624 3.2 19 6 2 7 28% 17831 89406 18899 50%
c -  8.47 27 265 0 15 3233 28 37597 11323 3.2 19 6 2 7 28% 17919 89405 18899 50%
c o  8.92 27 264 0 15 3476 28 40157 13586 3.2 19 6 2 7 28% 17986 89405 18899 50%
c d  9.06 27 269 0 15 3563 28 41261 14506 3.2 19 6 2 7 28% 17958 89405 18867 50%
c u  9.12 27 269 0 15 3563 28 41261 12485 3.2 19 6 2 7 28% 17974 89405 18867 50%
c v  9.16 27 269 0 15 3563 28 41261 11574 3.2 19 6 2 7 28% 17975 89405 18867 50%
c w  9.19 27 269 0 15 3563 28 41261 11574 3.2 19 6 2 7 28% 17975 89405 18867 50%
c x  9.25 29 269 0 15 3563 28 41261 11572 3.2 19 6 2 7 28% 17975 86051 18867 50%
c =  9.44 29 269 0 15 3563 28 41261 11572 3.2 19 6 2 7 28% 20473 86043 17618 47%
c d  9.45 29 269 0 15 3563 28 41261 11283 3.2 19 6 2 7 28% 17871 86043 17618 47%
c
c  seconds   switched     rate         size/glue tier1    binary          remaining
c         MB   reductions   conflicts        size  tier2      irredundant
c           level   restarts      redundant    glue   trail          variables
c
c t  9.46 29 269 0 15 3563 28 41261 11283 3.2 19 6 2 7 28% 17548 86043 17618 47%
c f  9.51 29 269 0 15 3563 28 41261 11283 3.2 19 6 2 7 28% 17664 85433 17745 47%
c u  9.56 29 269 0 15 3563 28 41261 10696 3.2 19 6 2 7 28% 17671 85433 17745 47%
c v  9.60 29 269 0 15 3563 28 41261 9865 3.2 19 6 2 7 28% 17675 85433 17745 47%
c w  9.64 29 269 0 15 3563 28 41261 9865 3.2 19 6 2 7 28% 17675 85433 17745 47%
c x  9.69 29 269 0 15 3563 28 41261 9863 3.2 19 6 2 7 28% 17678 81253 17745 47%
c =  9.84 29 269 0 15 3563 28 41261 9863 3.2 19 6 2 7 28% 17718 81253 17725 47%
c d  9.85 29 269 0 15 3563 28 41261 9853 3.2 19 6 2 7 28% 17675 81253 17725 47%
c t  9.86 29 269 0 15 3563 28 41261 9853 3.2 19 6 2 7 28% 17652 81253 17725 47%
c f  9.87 29 269 0 15 3563 28 41261 9853 3.2 19 6 2 7 28% 17656 81233 17730 47%
c -  9.94 29 268 0 16 3601 28 41470 8825 3.2 19 6 2 7 28% 17658 81233 17730 47%
c - 10.27 29 264 0 17 3828 27 45470 11015 3.1 18 6 2 7 28% 17728 81232 17730 47%
c - 10.83 29 260 0 18 4190 27 49594 13209 3.1 19 6 2 6 28% 17829 81231 17730 47%
c s 11.25 29 255 0 18 4482 27 52146 15524 3.1 19 6 2 6 28% 17892 77859 17730 47%
c e 11.33 29 255 0 18 4482 27 52146 15524 3.1 19 6 2 6 28% 16028 81221 16668 44%
c 2 11.33 29 255 0 18 4482 27 52146 15524 3.1 19 6 2 6 28% 16015 81221 16668 44%
c s 11.34 29 255 0 18 4482 27 52146 15524 3.1 19 6 2 6 28% 16066 80767 16668 44%
c e 11.35 29 255 0 18 4482 27 52146 15524 3.1 19 6 2 6 28% 16044 80802 16658 44%
c ^ 11.35 29 255 0 18 4482 27 52146 15524 3.1 19 6 2 6 28% 16044 80802 16658 44%
c - 11.58 29 251 0 19 4647 27 53836 13978 3.1 19 6 2 6 28% 16064 80802 16658 44%
c
c  seconds   switched     rate         size/glue tier1    binary          remaining
c         MB   reductions   conflicts        size  tier2      irredundant
c           level   restarts      redundant    glue   trail          variables
c
c - 12.23 29 242 0 20 5066 26 58195 15843 3.1 19 6 2 6 28% 16125 80802 16658 44%
c c 12.28 29 241 0 20 5079 26 58892 16387 3.1 19 6 2 6 28% 16169 80715 16632 44%
c d 12.28 29 241 0 20 5079 26 58892 16325 3.1 19 6 2 6 28% 16117 80715 16632 44%
c u 12.35 29 241 0 20 5079 26 58892 13694 3.1 19 6 2 6 28% 16124 80715 16632 44%
c v 12.40 29 241 0 20 5079 26 58892 12330 3.1 19 6 2 6 28% 16129 80715 16632 44%
c w 12.41 29 241 0 20 5079 26 58892 12308 3.1 19 6 2 6 28% 16129 80715 16632 44%
c x 12.48 29 241 0 20 5079 26 58892 12303 3.1 19 6 2 6 28% 16166 80267 16632 44%
c = 12.72 29 241 0 20 5079 26 58892 12303 3.1 19 6 2 6 28% 17482 80259 15974 42%
c d 12.72 29 241 0 20 5079 26 58892 11930 3.1 19 6 2 6 28% 16061 80259 15974 42%
c t 12.74 29 241 0 20 5079 26 58892 11930 3.1 19 6 2 6 28% 15748 80259 15974 42%
c f 12.80 29 241 0 20 5079 26 58892 11930 3.1 19 6 2 6 28% 15879 79748 16041 42%
c u 12.86 29 241 0 20 5079 26 58892 11043 3.1 19 6 2 6 28% 15882 79748 16041 42%
c v 12.90 29 241 0 20 5079 26 58892 10492 3.1 19 6 2 6 28% 15883 79748 16041 42%
c w 12.91 29 241 0 20 5079 26 58892 10477 3.1 19 6 2 6 28% 15883 79748 16041 42%
c x 13.02 29 241 0 20 5079 26 58892 10458 3.1 19 6 2 6 28% 16101 75349 16041 42%
c = 13.25 29 241 0 20 5079 26 58892 10458 3.1 19 6 2 6 28% 16401 75349 15891 42%
c d 13.26 29 241 0 20 5079 26 58892 10442 3.1 19 6 2 6 28% 16092 75349 15891 42%
c t 13.27 29 241 0 20 5079 26 58892 10442 3.1 19 6 2 6 28% 16015 75349 15891 42%
c f 13.29 29 241 0 20 5079 26 58892 10442 3.1 19 6 2 6 28% 16035 75229 15907 42%
c - 13.67 29 237 0 21 5351 26 62667 12346 3.0 19 6 2 6 28% 16097 75228 15907 42%
c
c  seconds   switched     rate         size/glue tier1    binary          remaining
c         MB   reductions   conflicts        size  tier2      irredundant
c           level   restarts      redundant    glue   trail          variables
c
c - 14.28 29 231 0 22 5803 26 67249 14761 3.0 19 6 2 6 28% 16159 75227 15907 42%
c o 14.70 29 226 0 22 6105 26 70169 17384 3.0 19 6 2 6 28% 16192 75227 15907 42%
c - 15.01 29 224 0 23 6334 26 71940 16844 3.0 19 6 2 6 28% 16214 75226 15907 42%
c - 15.50 29 220 0 24 6712 25 76736 18601 3.0 19 6 2 6 28% 16302 75226 15907 42%
c c 16.01 29 217 0 24 7061 25 79948 21512 3.0 19 6 2 6 28% 16374 75062 15861 42%
c d 16.02 29 217 0 24 7061 25 79948 21283 3.0 19 6 2 6 28% 16282 75062 15861 42%
c u 16.09 29 217 0 24 7061 25 79948 17962 3.0 19 6 2 6 28% 16293 75062 15861 42%
c v 16.15 29 217 0 24 7061 25 79948 16626 3.0 19 6 2 6 28% 16296 75062 15861 42%
c w 16.19 29 217 0 24 7061 25 79948 16626 3.0 19 6 2 6 28% 16296 75062 15861 42%
c x 16.26 29 217 0 24 7061 25 79948 16614 3.0 19 6 2 6 28% 16381 74334 15861 42%
c d 16.28 29 217 0 24 7061 25 79948 16614 3.0 19 6 2 6 28% 16379 74334 15860 42%
c t 16.30 29 217 0 24 7061 25 79948 16614 3.0 19 6 2 6 28% 16305 74334 15860 42%
c f 16.31 29 217 0 24 7061 25 79948 16614 3.0 19 6 2 6 28% 16316 74289 15866 42%
c u 16.42 29 217 0 24 7061 25 79948 15792 3.0 19 6 2 6 28% 16325 74289 15866 42%
c v 16.48 29 217 0 24 7061 25 79948 14884 3.0 19 6 2 6 28% 16326 74289 15866 42%
c w 16.54 29 217 0 24 7061 25 79948 14879 3.0 19 6 2 6 28% 16326 74289 15866 42%
c x 16.60 29 217 0 24 7061 25 79948 14876 3.0 19 6 2 6 28% 16342 74081 15866 42%
c d 16.61 29 217 0 24 7061 25 79948 14876 3.0 19 6 2 6 28% 16338 74081 15864 42%
c t 16.62 29 217 0 24 7061 25 79948 14876 3.0 19 6 2 6 28% 16332 74081 15864 42%
c - 16.79 29 215 0 25 7177 25 81634 14581 3.0 19 6 2 6 28% 16358 74080 15864 42%
c
c  seconds   switched     rate         size/glue tier1    binary          remaining
c         MB   reductions   conflicts        size  tier2      irredundant
c           level   restarts      redundant    glue   trail          variables
c
c - 17.21 29 209 0 26 7473 24 86637 16970 2.9 18 6 2 6 27% 16454 74080 15864 42%
c - 17.86 29 205 0 27 7970 24 91736 19291 2.9 18 6 2 5 27% 16533 74079 15864 42%
c s 18.39 29 203 0 27 8349 24 95797 22996 2.9 18 6 2 5 28% 16583 73559 15864 42%
c e 18.51 29 203 0 27 8349 24 95797 22996 2.9 18 6 2 5 28% 12267 84949 13609 36%
c 2 18.51 29 203 0 27 8349 24 95797 22996 2.9 18 6 2 5 28% 12253 84949 13609 36%
c s 18.54 29 203 0 27 8349 24 95797 22996 2.9 18 6 2 5 28% 12298 83592 13609 36%
c e 18.57 29 203 0 27 8349 24 95797 22996 2.9 18 6 2 5 28% 12169 83883 13554 36%
c ^ 18.57 29 203 0 27 8349 24 95797 22996 2.9 18 6 2 5 28% 12169 83883 13554 36%
c - 18.82 29 201 0 28 8564 24 96932 15280 2.9 19 6 2 5 28% 12181 83883 13554 36%
c - 19.29 29 195 0 29 8905 24 102225 17955 2.9 18 6 2 5 27% 12234 83883 13554 36%
c d 19.64 29 193 0 29 9201 24 104557 19944 2.9 18 6 2 5 27% 12192 83880 13521 36%
c u 19.72 29 193 0 29 9201 24 104557 16773 2.9 18 6 2 5 27% 12223 83880 13521 36%
c v 19.78 29 193 0 29 9201 24 104557 15113 2.9 18 6 2 5 27% 12227 83880 13521 36%
c w 19.84 29 193 0 29 9201 24 104557 15106 2.9 18 6 2 5 27% 12227 83880 13521 36%
c x 19.90 29 193 0 29 9201 24 104557 15092 2.9 18 6 2 5 27% 12236 83172 13521 36%
c = 20.24 29 193 0 29 9201 24 104557 15092 2.9 18 6 2 5 27% 12930 83121 13168 35%
c d 20.25 29 193 0 29 9201 24 104557 14457 2.9 18 6 2 5 27% 12136 83121 13168 35%
c t 20.26 29 193 0 29 9201 24 104557 14457 2.9 18 6 2 5 27% 12041 83121 13168 35%
c f 20.36 29 193 0 29 9201 24 104557 14457 2.9 18 6 2 5 27% 12093 82797 13196 35%
c u 20.45 29 193 0 29 9201 24 104557 13600 2.9 18 6 2 5 27% 12102 82797 13196 35%
c
c  seconds   switched     rate          size/glue tier1    binary          remaining
c         MB   reductions   conflicts         size  tier2      irredundant
c           level   restarts       redundant    glue   trail          variables
c
c v 20.48 29 193 0 29 9201 24 104557 13221 2.9 18 6 2 5 27% 12103 82797 13196 35%
c w 20.56 29 193 0 29 9201 24 104557 13036 2.9 18 6 2 5 27% 12103 82797 13196 35%
c x 20.64 29 193 0 29 9201 24 104557 13011 2.9 18 6 2 5 27% 12154 79642 13196 35%
c = 20.96 29 193 0 29 9201 24 104557 13011 2.9 18 6 2 5 27% 12330 79592 13105 35%
c d 20.97 29 193 0 29 9201 24 104557 12965 2.9 18 6 2 5 27% 12140 79591 13105 35%
c t 20.98 29 193 0 29 9201 24 104557 12965 2.9 18 6 2 5 27% 12104 79591 13105 35%
c f 21.00 29 193 0 29 9201 24 104557 12965 2.9 18 6 2 5 27% 12107 79570 13107 35%
c - 21.28 29 190 0 30 9457 23 107612 14078 2.8 18 6 2 5 27% 12129 79566 13107 35%
c o 21.63 29 188 0 30 9756 23 110241 16537 2.8 18 6 2 5 27% 12141 79565 13107 35%
c - 21.97 29 185 0 31 10029 23 113089 16962 2.8 18 7 2 5 27% 12167 79565 13107 35%
c - 22.61 29 183 0 32 10490 23 118658 19391 2.8 18 7 2 5 28% 12198 79562 13107 35%
c - 23.32 29 180 0 33 11032 23 124314 21570 2.8 19 7 2 5 28% 12238 79562 13107 35%
c - 24.04 29 178 0 34 11531 23 130058 23420 2.8 19 7 2 5 28% 12272 79561 13107 35%
c d 24.41 29 175 0 34 11749 22 132790 25926 2.8 19 7 2 5 28% 12270 79561 13100 35%
c u 24.51 29 175 0 34 11749 22 132790 22547 2.8 19 7 2 5 28% 12295 79561 13100 35%
c v 24.59 29 175 0 34 11749 22 132790 20435 2.8 19 7 2 5 28% 12298 79561 13100 35%
c w 24.63 29 175 0 34 11749 22 132790 20418 2.8 19 7 2 5 28% 12298 79561 13100 35%
c x 24.71 29 175 0 34 11749 22 132790 20412 2.8 19 7 2 5 28% 12347 78633 13100 35%
c = 25.15 29 175 0 34 11749 22 132790 20412 2.8 19 7 2 5 28% 12469 78607 13036 34%
c d 25.15 29 175 0 34 11749 22 132790 20218 2.8 19 7 2 5 28% 12324 78606 13036 34%
c
c  seconds   switched      rate          size/glue tier1    binary          remaining
c         MB   reductions    conflicts         size  tier2      irredundant
c           level   restarts        redundant    glue   trail          variables
c
c t 25.17 29 175 0 34 11749 22 132790 20218 2.8 19 7 2 5 28% 12296 78606 13036 34%
c f 25.18 29 175 0 34 11749 22 132790 20218 2.8 19 7 2 5 28% 12303 78557 13040 35%
c u 25.26 29 175 0 34 11749 22 132790 18764 2.8 19 7 2 5 28% 12310 78557 13040 35%
c v 25.32 29 175 0 34 11749 22 132790 17990 2.8 19 7 2 5 28% 12310 78557 13040 35%
c w 25.40 29 175 0 34 11749 22 132790 17893 2.8 19 7 2 5 28% 12310 78557 13040 35%
c x 25.48 29 175 0 34 11749 22 132790 17886 2.8 19 7 2 5 28% 12328 78069 13040 35%
c = 25.88 29 175 0 34 11749 22 132790 17886 2.8 19 7 2 5 28% 12376 78060 13015 34%
c d 25.89 29 175 0 34 11749 22 132790 17881 2.8 19 7 2 5 28% 12326 78060 13015 34%
c t 25.90 29 175 0 34 11749 22 132790 17881 2.8 19 7 2 5 28% 12312 78060 13015 34%
c f 25.91 29 175 0 34 11749 22 132790 17881 2.8 19 7 2 5 28% 12314 78049 13016 34%
c - 26.19 29 174 0 35 11960 22 135888 18308 2.8 19 7 2 5 28% 12327 78048 13016 34%
c - 26.90 29 171 0 36 12446 22 141804 21182 2.8 19 7 2 5 29% 12359 78047 13016 34%
c - 27.67 29 168 0 37 12996 22 147804 23565 2.8 19 7 2 5 29% 12403 78045 13016 34%
c i 27.87 29 167 0 37 13121 22 149462 25105 2.8 19 7 2 5 29% 12422 78045 13015 34%
c i 27.87 29 167 0 37 13121 22 149484 25115 2.8 19 7 2 5 29% 12427 78045 13013 34%
c i 28.37 29 165 0 37 13497 22 153045 28443 2.8 19 7 2 5 29% 12455 78043 13012 34%
c - 28.47 29 164 0 38 13571 21 153886 23660 2.8 19 7 1 5 29% 12455 78043 13012 34%
c i 28.47 29 164 0 38 13571 21 153920 23670 2.8 19 7 1 5 29% 12459 78043 13011 34%
c i 28.71 29 163 0 38 13751 21 155909 25486 2.8 19 7 1 5 29% 12474 78043 13010 34%
c i 28.71 29 163 0 38 13751 21 155919 25486 2.8 19 7 1 5 29% 12478 78043 13005 34%
c
c  seconds   switched      rate          size/glue tier1    binary          remaining
c         MB   reductions    conflicts         size  tier2      irredundant
c           level   restarts        redundant    glue   trail          variables
c
c s 28.93 29 162 0 38 13898 21 157825 27243 2.8 19 7 1 5 29% 12491 77256 13005 34%
c e 29.06 29 162 0 38 13898 21 157825 27243 2.8 19 7 1 5 29% 9169 91928 11106 29%
c 2 29.06 29 162 0 38 13898 21 157825 27243 2.8 19 7 1 5 29% 9163 91928 11106 29%
c s 29.09 29 162 0 38 13898 21 157825 27243 2.8 19 7 1 5 29% 9202 89917 11106 29%
c e 29.12 29 162 0 38 13898 21 157825 27243 2.8 19 7 1 5 29% 9123 90197 11064 29%
c ^ 29.12 29 162 0 38 13898 21 157825 27243 2.8 19 7 1 5 29% 9123 90197 11064 29%
c - 29.39 29 161 0 39 14096 21 160050 17487 2.7 19 7 1 5 29% 9125 90196 11064 29%
c i 29.40 29 160 0 39 14100 21 160300 17673 2.7 19 7 1 5 29% 9131 90196 11063 29%
c o 29.41 29 160 0 39 14100 21 160300 17673 2.7 19 7 1 5 29% 9131 90196 11063 29%
c i 29.48 29 160 0 39 14162 21 160774 18109 2.7 19 7 1 5 29% 9137 90196 11061 29%
c i 29.52 29 158 0 39 14195 21 162652 19644 2.7 19 7 1 5 29% 9154 90196 11060 29%
c u 29.79 29 157 0 39 14331 21 164753 19657 2.7 19 7 1 5 29% 9176 90146 11060 29%
c v 29.88 29 157 0 39 14331 21 164753 16375 2.7 19 7 1 5 29% 9189 90146 11060 29%
c w 29.96 29 157 0 39 14331 21 164753 16315 2.7 19 7 1 5 29% 9189 90146 11060 29%
c x 30.03 29 157 0 39 14331 21 164753 16315 2.7 19 7 1 5 29% 9189 90129 11060 29%
c = 30.49 29 157 0 39 14331 21 164753 16315 2.7 19 7 1 5 29% 9225 90072 11037 29%
c d 30.49 29 157 0 39 14331 21 164753 16240 2.7 19 7 1 5 29% 9177 90069 11036 29%
c t 30.50 29 157 0 39 14331 21 164753 16240 2.7 19 7 1 5 29% 9084 90069 11036 29%
c f 30.62 29 157 0 39 14331 21 164753 16240 2.7 19 7 1 5 29% 9085 89723 11051 29%
c u 30.67 29 157 0 39 14331 21 164753 15910 2.7 19 7 1 5 29% 9090 89723 11051 29%
c
c  seconds   switched      rate          size/glue tier1    binary         remaining
c         MB   reductions    conflicts         size  tier2     irredundant
c           level   restarts        redundant    glue   trail         variables
c
c v 30.73 29 157 0 39 14331 21 164753 15131 2.7 19 7 1 5 29% 9094 89723 11051 29%
c w 30.85 29 157 0 39 14331 21 164753 14739 2.7 19 7 1 5 29% 9094 89723 11051 29%
c = 31.30 29 157 0 39 14331 21 164753 14739 2.7 19 7 1 5 29% 9108 89684 11040 29%
c d 31.31 29 157 0 39 14331 21 164753 14693 2.7 19 7 1 5 29% 9100 89680 11040 29%
c t 31.32 29 157 0 39 14331 21 164753 14693 2.7 19 7 1 5 29% 9087 89680 11040 29%
c i 31.41 29 156 0 39 14397 20 165718 15582 2.7 19 7 1 5 29% 9097 89675 11039 29%
c i 31.42 29 156 0 39 14400 20 165889 15730 2.7 19 7 1 5 29% 9098 89675 11038 29%
c - 31.46 29 156 0 40 14422 20 166294 14625 2.7 19 7 2 5 29% 9084 89675 11038 29%
c i 31.47 29 156 0 40 14423 20 166422 14727 2.7 19 7 2 5 29% 9088 89675 11037 29%
c i 31.52 29 155 0 40 14452 20 167448 15633 2.7 19 7 2 5 29% 9094 89675 11036 29%
c i 31.53 29 154 0 40 14454 20 167776 15921 2.7 19 7 2 5 29% 9098 89675 11033 29%
c i 31.54 29 154 0 40 14465 20 168101 16217 2.7 19 7 2 5 29% 9099 89675 11032 29%
c i 31.54 29 154 0 40 14473 20 168265 16360 2.7 19 7 2 5 28% 9102 89675 11031 29%
c i 31.56 29 154 0 40 14499 20 168463 16536 2.7 19 7 2 5 28% 9104 89674 11030 29%
c i 31.58 29 153 0 40 14514 20 168971 16994 2.7 19 7 2 5 28% 9106 89674 11029 29%
c i 31.58 29 153 0 40 14515 20 169195 17181 2.7 19 7 2 5 28% 9109 89674 11025 29%
c i 31.60 29 152 0 40 14541 20 170026 17884 2.7 19 7 2 5 28% 9122 89674 11024 29%
c i 31.60 29 152 0 40 14541 20 170071 17914 2.7 19 7 2 5 28% 9127 89674 11023 29%
c i 31.60 29 152 0 40 14541 20 170086 17923 2.7 19 7 2 5 28% 9130 89674 11022 29%
c i 31.60 29 152 0 40 14541 20 170088 17924 2.7 19 7 2 5 28% 9130 89674 11018 29%
c
c  seconds   switched      rate          size/glue tier1    binary         remaining
c         MB   reductions    conflicts         size  tier2     irredundant
c           level   restarts        redundant    glue   trail         variables
c
c i 31.60 29 152 0 40 14541 20 170098 17926 2.7 19 7 2 5 28% 9133 89674 11017 29%
c i 31.60 29 152 0 40 14541 20 170108 17925 2.7 19 7 2 5 28% 9139 89673 11016 29%
c } 31.60 29 152 0 40 14541 20 170111 17924 2.7 19 7 2 5 28% 9140 89673 10998 29%
c 0 31.60 29 152 0 40 14541 20 170111 17924 2.7 19 7 2 5 28% 9140 89673 10998 29%
c
c ---- [ result ] ------------------------------------------------------------
c
s UNSATISFIABLE
c
c ---- [ profiling ] ---------------------------------------------------------
c
c          20.69   65.49 %  search
c          20.69   65.49 %  focused
c          10.30   32.61 %  simplify
c           9.84   31.14 %  probe
c           4.26   13.48 %  sweep
c           3.51   11.11 %  vivify
c           0.87    2.76 %  factor
c           0.81    2.58 %  eliminate
c           0.52    1.65 %  preprocess
c           0.52    1.64 %  substitute
c           0.47    1.48 %  congruence
c           0.20    0.63 %  reduce
c           0.17    0.53 %  subsume
c           0.16    0.52 %  fastel
c           0.15    0.46 %  transitive
c           0.07    0.21 %  backbone
c           0.04    0.13 %  parse
c           0.04    0.12 %  lucky
c =============================================
c          31.60  100.00 %  total
c
c ---- [ statistics ] --------------------------------------------------------
c
c chronological:                         6240                4 %  conflicts
c conflicts:                           170111             5383.32 per second
c congruent:                             4697               12 %  variables
c decisions:                          3556541               20.91 per conflict
c eliminated:                           19738               52 %  variables
c factored:                              4194               11 %  variables
c fast_eliminated:                       9497               48 %  eliminated
c fast_strengthened:                      423                7 %  per strengthened
c fast_subsumed:                          239                1 %  per subsumed
c iterations:                              27                0 %  variables
c propagations:                     162478359          5141776    per second
c reductions:                              40             4253    interval
c reordered:                                6            28352    interval
c restarts:                             14541               12    interval
c strengthened:                          5903                0 %  checks
c substituted:                          11166               30 %  variables
c subsumed:                             19247                0 %  checks
c switched:                                 0                0    interval
c vivified:                             91963               15 %  checks
c
c ---- [ glue usage ] --------------------------------------------------------
c
c focused glue 2 used 94730 clauses 23.37% accumulated 72.95% tier1
c focused glue 3 used 42753 clauses 10.55% accumulated 83.50%
c focused glue 4 used 18905 clauses  4.66% accumulated 88.17%
c focused glue 5 used 11988 clauses  2.96% accumulated 91.12% tier2
c
c ---- [ resources ] ---------------------------------------------------------
c
c maximum-resident-set-size:         30736384 bytes         29 MB
c process-time:                            32s              31.60 seconds
c
c ---- [ shutting down ] -----------------------------------------------------
c
c exit 20
